p cnf 1 45
-1 0
1 0
-1 0
1 0
1 0
-1 0
-1 0
1 0
-1 0
1 0
1 0
-1 0
1 0
-1 0
-1 0
-1 0
1 0
1 0
1 0
-1 0
1 0
1 0
-1 0
-1 0
1 0
-1 0
1 0
-1 0
1 0
-1 0
1 0
1 0
-1 0
1 0
-1 0
1 0
-1 0
1 0
-1 0
1 0
-1 0
1 0
1 0
1 0
1 0
